NAME RRP
OBJSENSE MAX
ROWS
 N  OBJ
 E  R0      
 E  R1      
 E  R2      
 E  R3      
 E  R4      
 E  R5      
 E  R6      
 E  R7      
 E  R8      
 E  R9      
 E  R10     
 E  R11     
 E  R12     
 E  R13     
 E  R14     
 E  R15     
 E  R16     
 E  R17     
 E  R18     
 E  R19     
 E  R20     
 E  R21     
 E  R22     
 E  R23     
 E  R24     
 E  R25     
 E  R26     
 E  R27     
 E  R28     
 L  R29     
 L  R30     
 L  R31     
 L  R32     
 L  R33     
 L  R34     
 L  R35     
 L  R36     
 L  R37     
 L  R38     
 L  R39     
 L  R40     
 L  R41     
 L  R42     
 L  R43     
 L  R44     
 L  R45     
 L  R46     
 L  R47     
 L  R48     
 L  R49     
 L  R50     
 L  R51     
 L  R52     
 L  R53     
 L  R54     
 L  R55     
 L  R56     
 L  R57     
 L  R58     
 L  R59     
 L  R60     
 L  R61     
 L  R62     
 L  R63     
 L  R64     
 L  R65     
 L  R66     
 L  R67     
 L  R68     
 L  R69     
 L  R70     
 L  R71     
 L  R72     
 L  R73     
 L  R74     
 L  R75     
 L  R76     
 L  R77     
 L  R78     
 L  R79     
 L  R80     
 L  R81     
 L  R82     
 L  R83     
 L  R84     
 L  R85     
 L  R86     
 L  R87     
 L  R88     
 L  R89     
 L  R90     
 L  R91     
 L  R92     
 L  R93     
 L  R94     
 L  R95     
 L  R96     
 G  R97     
 G  R98     
 G  R99     
 G  R100    
 G  R101    
 G  R102    
 L  R103    
 L  R104    
 L  R105    
 L  R106    
 L  R107    
 L  R108    
 G  R109    
 G  R110    
 G  R111    
 G  R112    
 G  R113    
 G  R114    
 G  R115    
 G  R116    
 G  R117    
 G  R118    
 G  R119    
 G  R120    
 G  R121    
 G  R122    
 G  R123    
 G  R124    
 G  R125    
 G  R126    
 G  R127    
 G  R128    
 G  R129    
 G  R130    
 G  R131    
 G  R132    
 G  R133    
 G  R134    
 G  R135    
 G  R136    
 L  R137    
 L  R138    
 L  R139    
 L  R140    
 L  R141    
 L  R142    
 L  R143    
 L  R144    
 L  R145    
 L  R146    
 L  R147    
 L  R148    
 L  R149    
 L  R150    
 L  R151    
 L  R152    
 L  R153    
 L  R154    
 L  R155    
 L  R156    
 L  R157    
 L  R158    
 L  R159    
 L  R160    
 L  R161    
 L  R162    
 L  R163    
 L  R164    
 L  R165    
 L  R166    
 L  R167    
 L  R168    
 L  R169    
 L  R170    
 L  R171    
 L  R172    
 L  R173    
 L  R174    
 L  qc0     
 L  qc1     
 L  qc2     
 L  qc3     
 L  qc4     
 L  qc5     
 L  qc6     
 L  qc7     
 L  qc8     
 L  qc9     
 L  qc10    
 L  qc11    
 L  qc12    
 L  qc13    
 L  qc14    
 L  qc15    
 L  qc16    
 L  qc17    
 G  qc18    
 G  qc19    
 G  qc20    
 G  qc21    
 G  qc22    
 G  qc23    
 G  qc24    
 G  qc25    
 G  qc26    
 G  qc27    
 G  qc28    
 G  qc29    
 G  qc30    
 G  qc31    
 G  qc32    
 G  qc33    
 G  qc34    
 G  qc35    
COLUMNS
    MARKER    'MARKER'                 'INTORG'
    x_kij[0,0,2]  R0        1
    x_kij[0,0,2]  R4        1
    x_kij[0,0,2]  R5        -1
    x_kij[0,0,2]  R29       1
    x_kij[0,0,2]  R41       1200
    x_kij[0,0,3]  R0        1
    x_kij[0,0,3]  R4        1
    x_kij[0,0,3]  R6        -1
    x_kij[0,0,3]  R30       1
    x_kij[0,0,3]  R42       1200
    x_kij[0,0,4]  R0        1
    x_kij[0,0,4]  R4        1
    x_kij[0,0,4]  R7        -1
    x_kij[0,0,4]  R31       1
    x_kij[0,0,4]  R43       1200
    x_kij[0,0,8]  R0        1
    x_kij[0,0,8]  R2        1
    x_kij[0,0,8]  R4        1
    x_kij[0,0,8]  R11       -1
    x_kij[0,0,8]  R44       1200
    x_kij[0,2,3]  R5        1
    x_kij[0,2,3]  R6        -1
    x_kij[0,2,3]  R20       1
    x_kij[0,2,3]  R26       1
    x_kij[0,2,3]  R30       1
    x_kij[0,2,3]  R45       1200
    x_kij[0,2,3]  R173      1
    x_kij[0,2,4]  R5        1
    x_kij[0,2,4]  R7        -1
    x_kij[0,2,4]  R20       1
    x_kij[0,2,4]  R26       1
    x_kij[0,2,4]  R31       1
    x_kij[0,2,4]  R46       1200
    x_kij[0,2,4]  R173      1
    x_kij[0,2,5]  R5        1
    x_kij[0,2,5]  R8        -1
    x_kij[0,2,5]  R20       1
    x_kij[0,2,5]  R26       1
    x_kij[0,2,5]  R32       1
    x_kij[0,2,5]  R47       1200
    x_kij[0,2,5]  R173      1
    x_kij[0,2,5]  qc0       1.0818892297237251e+03
    x_kij[0,2,5]  qc18      1.1318892297237251e+03
    x_kij[0,2,6]  R5        1
    x_kij[0,2,6]  R9        -1
    x_kij[0,2,6]  R20       1
    x_kij[0,2,6]  R26       1
    x_kij[0,2,6]  R33       1
    x_kij[0,2,6]  R48       1200
    x_kij[0,2,6]  R173      1
    x_kij[0,2,6]  qc1       1.0791193869821789e+03
    x_kij[0,2,6]  qc19      1.0991193869821789e+03
    x_kij[0,2,7]  R5        1
    x_kij[0,2,7]  R10       -1
    x_kij[0,2,7]  R20       1
    x_kij[0,2,7]  R26       1
    x_kij[0,2,7]  R34       1
    x_kij[0,2,7]  R49       1200
    x_kij[0,2,7]  R173      1
    x_kij[0,2,7]  qc2       1.0708795604428778e+03
    x_kij[0,2,7]  qc20      1.0958795604428778e+03
    x_kij[0,3,2]  R5        -1
    x_kij[0,3,2]  R6        1
    x_kij[0,3,2]  R21       1
    x_kij[0,3,2]  R27       1
    x_kij[0,3,2]  R29       1
    x_kij[0,3,2]  R50       1200
    x_kij[0,3,2]  R173      1
    x_kij[0,3,4]  R6        1
    x_kij[0,3,4]  R7        -1
    x_kij[0,3,4]  R21       1
    x_kij[0,3,4]  R27       1
    x_kij[0,3,4]  R31       1
    x_kij[0,3,4]  R51       1200
    x_kij[0,3,4]  R173      1
    x_kij[0,3,5]  R6        1
    x_kij[0,3,5]  R8        -1
    x_kij[0,3,5]  R21       1
    x_kij[0,3,5]  R27       1
    x_kij[0,3,5]  R32       1
    x_kij[0,3,5]  R52       1200
    x_kij[0,3,5]  R173      1
    x_kij[0,3,5]  qc3       1.0815609110854143e+03
    x_kij[0,3,5]  qc21      1.1315609110854143e+03
    x_kij[0,3,6]  R6        1
    x_kij[0,3,6]  R9        -1
    x_kij[0,3,6]  R21       1
    x_kij[0,3,6]  R27       1
    x_kij[0,3,6]  R33       1
    x_kij[0,3,6]  R53       1200
    x_kij[0,3,6]  R173      1
    x_kij[0,3,6]  qc4       1.0835075774975294e+03
    x_kij[0,3,6]  qc22      1.1035075774975294e+03
    x_kij[0,3,7]  R6        1
    x_kij[0,3,7]  R10       -1
    x_kij[0,3,7]  R21       1
    x_kij[0,3,7]  R27       1
    x_kij[0,3,7]  R34       1
    x_kij[0,3,7]  R54       1200
    x_kij[0,3,7]  R173      1
    x_kij[0,3,7]  qc5       1.0759168108424153e+03
    x_kij[0,3,7]  qc23      1.1009168108424153e+03
    x_kij[0,4,2]  R5        -1
    x_kij[0,4,2]  R7        1
    x_kij[0,4,2]  R22       1
    x_kij[0,4,2]  R28       1
    x_kij[0,4,2]  R29       1
    x_kij[0,4,2]  R55       1200
    x_kij[0,4,2]  R173      1
    x_kij[0,4,3]  R6        -1
    x_kij[0,4,3]  R7        1
    x_kij[0,4,3]  R22       1
    x_kij[0,4,3]  R28       1
    x_kij[0,4,3]  R30       1
    x_kij[0,4,3]  R56       1200
    x_kij[0,4,3]  R173      1
    x_kij[0,4,5]  R7        1
    x_kij[0,4,5]  R8        -1
    x_kij[0,4,5]  R22       1
    x_kij[0,4,5]  R28       1
    x_kij[0,4,5]  R32       1
    x_kij[0,4,5]  R57       1200
    x_kij[0,4,5]  R173      1
    x_kij[0,4,5]  qc6       1.0892296703857310e+03
    x_kij[0,4,5]  qc24      1.1392296703857310e+03
    x_kij[0,4,6]  R7        1
    x_kij[0,4,6]  R9        -1
    x_kij[0,4,6]  R22       1
    x_kij[0,4,6]  R28       1
    x_kij[0,4,6]  R33       1
    x_kij[0,4,6]  R58       1200
    x_kij[0,4,6]  R173      1
    x_kij[0,4,6]  qc7       1.0873508893593264e+03
    x_kij[0,4,6]  qc25      1.1073508893593264e+03
    x_kij[0,4,7]  R7        1
    x_kij[0,4,7]  R10       -1
    x_kij[0,4,7]  R22       1
    x_kij[0,4,7]  R28       1
    x_kij[0,4,7]  R34       1
    x_kij[0,4,7]  R59       1200
    x_kij[0,4,7]  R173      1
    x_kij[0,4,7]  qc8       1.0791193869821789e+03
    x_kij[0,4,7]  qc26      1.1041193869821789e+03
    x_kij[0,5,6]  R8        1
    x_kij[0,5,6]  R9        -1
    x_kij[0,5,6]  R20       -1
    x_kij[0,5,6]  R33       1
    x_kij[0,5,6]  R60       1200
    x_kij[0,5,7]  R8        1
    x_kij[0,5,7]  R10       -1
    x_kij[0,5,7]  R20       -1
    x_kij[0,5,7]  R34       1
    x_kij[0,5,7]  R61       1200
    x_kij[0,5,8]  R2        1
    x_kij[0,5,8]  R8        1
    x_kij[0,5,8]  R11       -1
    x_kij[0,5,8]  R20       -1
    x_kij[0,5,8]  R62       1200
    x_kij[0,6,5]  R8        -1
    x_kij[0,6,5]  R9        1
    x_kij[0,6,5]  R21       -1
    x_kij[0,6,5]  R32       1
    x_kij[0,6,5]  R63       1200
    x_kij[0,6,7]  R9        1
    x_kij[0,6,7]  R10       -1
    x_kij[0,6,7]  R21       -1
    x_kij[0,6,7]  R34       1
    x_kij[0,6,7]  R64       1200
    x_kij[0,6,8]  R2        1
    x_kij[0,6,8]  R9        1
    x_kij[0,6,8]  R11       -1
    x_kij[0,6,8]  R21       -1
    x_kij[0,6,8]  R65       1200
    x_kij[0,7,5]  R8        -1
    x_kij[0,7,5]  R10       1
    x_kij[0,7,5]  R22       -1
    x_kij[0,7,5]  R32       1
    x_kij[0,7,5]  R66       1200
    x_kij[0,7,6]  R9        -1
    x_kij[0,7,6]  R10       1
    x_kij[0,7,6]  R22       -1
    x_kij[0,7,6]  R33       1
    x_kij[0,7,6]  R67       1200
    x_kij[0,7,8]  R2        1
    x_kij[0,7,8]  R10       1
    x_kij[0,7,8]  R11       -1
    x_kij[0,7,8]  R22       -1
    x_kij[0,7,8]  R68       1200
    x_kij[1,1,2]  R1        1
    x_kij[1,1,2]  R12       1
    x_kij[1,1,2]  R13       -1
    x_kij[1,1,2]  R29       1
    x_kij[1,1,2]  R69       1200
    x_kij[1,1,3]  R1        1
    x_kij[1,1,3]  R12       1
    x_kij[1,1,3]  R14       -1
    x_kij[1,1,3]  R30       1
    x_kij[1,1,3]  R70       1200
    x_kij[1,1,4]  R1        1
    x_kij[1,1,4]  R12       1
    x_kij[1,1,4]  R15       -1
    x_kij[1,1,4]  R31       1
    x_kij[1,1,4]  R71       1200
    x_kij[1,1,9]  R1        1
    x_kij[1,1,9]  R3        1
    x_kij[1,1,9]  R12       1
    x_kij[1,1,9]  R19       -1
    x_kij[1,1,9]  R72       1200
    x_kij[1,2,3]  R13       1
    x_kij[1,2,3]  R14       -1
    x_kij[1,2,3]  R23       1
    x_kij[1,2,3]  R26       1
    x_kij[1,2,3]  R30       1
    x_kij[1,2,3]  R73       1200
    x_kij[1,2,3]  R174      1
    x_kij[1,2,4]  R13       1
    x_kij[1,2,4]  R15       -1
    x_kij[1,2,4]  R23       1
    x_kij[1,2,4]  R26       1
    x_kij[1,2,4]  R31       1
    x_kij[1,2,4]  R74       1200
    x_kij[1,2,4]  R174      1
    x_kij[1,2,5]  R13       1
    x_kij[1,2,5]  R16       -1
    x_kij[1,2,5]  R23       1
    x_kij[1,2,5]  R26       1
    x_kij[1,2,5]  R32       1
    x_kij[1,2,5]  R75       1200
    x_kij[1,2,5]  R174      1
    x_kij[1,2,5]  qc9       1.0818892297237251e+03
    x_kij[1,2,5]  qc27      1.1318892297237251e+03
    x_kij[1,2,6]  R13       1
    x_kij[1,2,6]  R17       -1
    x_kij[1,2,6]  R23       1
    x_kij[1,2,6]  R26       1
    x_kij[1,2,6]  R33       1
    x_kij[1,2,6]  R76       1200
    x_kij[1,2,6]  R174      1
    x_kij[1,2,6]  qc10      1.0791193869821789e+03
    x_kij[1,2,6]  qc28      1.0991193869821789e+03
    x_kij[1,2,7]  R13       1
    x_kij[1,2,7]  R18       -1
    x_kij[1,2,7]  R23       1
    x_kij[1,2,7]  R26       1
    x_kij[1,2,7]  R34       1
    x_kij[1,2,7]  R77       1200
    x_kij[1,2,7]  R174      1
    x_kij[1,2,7]  qc11      1.0708795604428778e+03
    x_kij[1,2,7]  qc29      1.0958795604428778e+03
    x_kij[1,3,2]  R13       -1
    x_kij[1,3,2]  R14       1
    x_kij[1,3,2]  R24       1
    x_kij[1,3,2]  R27       1
    x_kij[1,3,2]  R29       1
    x_kij[1,3,2]  R78       1200
    x_kij[1,3,2]  R174      1
    x_kij[1,3,4]  R14       1
    x_kij[1,3,4]  R15       -1
    x_kij[1,3,4]  R24       1
    x_kij[1,3,4]  R27       1
    x_kij[1,3,4]  R31       1
    x_kij[1,3,4]  R79       1200
    x_kij[1,3,4]  R174      1
    x_kij[1,3,5]  R14       1
    x_kij[1,3,5]  R16       -1
    x_kij[1,3,5]  R24       1
    x_kij[1,3,5]  R27       1
    x_kij[1,3,5]  R32       1
    x_kij[1,3,5]  R80       1200
    x_kij[1,3,5]  R174      1
    x_kij[1,3,5]  qc12      1.0815609110854143e+03
    x_kij[1,3,5]  qc30      1.1315609110854143e+03
    x_kij[1,3,6]  R14       1
    x_kij[1,3,6]  R17       -1
    x_kij[1,3,6]  R24       1
    x_kij[1,3,6]  R27       1
    x_kij[1,3,6]  R33       1
    x_kij[1,3,6]  R81       1200
    x_kij[1,3,6]  R174      1
    x_kij[1,3,6]  qc13      1.0835075774975294e+03
    x_kij[1,3,6]  qc31      1.1035075774975294e+03
    x_kij[1,3,7]  R14       1
    x_kij[1,3,7]  R18       -1
    x_kij[1,3,7]  R24       1
    x_kij[1,3,7]  R27       1
    x_kij[1,3,7]  R34       1
    x_kij[1,3,7]  R82       1200
    x_kij[1,3,7]  R174      1
    x_kij[1,3,7]  qc14      1.0759168108424153e+03
    x_kij[1,3,7]  qc32      1.1009168108424153e+03
    x_kij[1,4,2]  R13       -1
    x_kij[1,4,2]  R15       1
    x_kij[1,4,2]  R25       1
    x_kij[1,4,2]  R28       1
    x_kij[1,4,2]  R29       1
    x_kij[1,4,2]  R83       1200
    x_kij[1,4,2]  R174      1
    x_kij[1,4,3]  R14       -1
    x_kij[1,4,3]  R15       1
    x_kij[1,4,3]  R25       1
    x_kij[1,4,3]  R28       1
    x_kij[1,4,3]  R30       1
    x_kij[1,4,3]  R84       1200
    x_kij[1,4,3]  R174      1
    x_kij[1,4,5]  R15       1
    x_kij[1,4,5]  R16       -1
    x_kij[1,4,5]  R25       1
    x_kij[1,4,5]  R28       1
    x_kij[1,4,5]  R32       1
    x_kij[1,4,5]  R85       1200
    x_kij[1,4,5]  R174      1
    x_kij[1,4,5]  qc15      1.0892296703857310e+03
    x_kij[1,4,5]  qc33      1.1392296703857310e+03
    x_kij[1,4,6]  R15       1
    x_kij[1,4,6]  R17       -1
    x_kij[1,4,6]  R25       1
    x_kij[1,4,6]  R28       1
    x_kij[1,4,6]  R33       1
    x_kij[1,4,6]  R86       1200
    x_kij[1,4,6]  R174      1
    x_kij[1,4,6]  qc16      1.0873508893593264e+03
    x_kij[1,4,6]  qc34      1.1073508893593264e+03
    x_kij[1,4,7]  R15       1
    x_kij[1,4,7]  R18       -1
    x_kij[1,4,7]  R25       1
    x_kij[1,4,7]  R28       1
    x_kij[1,4,7]  R34       1
    x_kij[1,4,7]  R87       1200
    x_kij[1,4,7]  R174      1
    x_kij[1,4,7]  qc17      1.0791193869821789e+03
    x_kij[1,4,7]  qc35      1.1041193869821789e+03
    x_kij[1,5,6]  R16       1
    x_kij[1,5,6]  R17       -1
    x_kij[1,5,6]  R23       -1
    x_kij[1,5,6]  R33       1
    x_kij[1,5,6]  R88       1200
    x_kij[1,5,7]  R16       1
    x_kij[1,5,7]  R18       -1
    x_kij[1,5,7]  R23       -1
    x_kij[1,5,7]  R34       1
    x_kij[1,5,7]  R89       1200
    x_kij[1,5,9]  R3        1
    x_kij[1,5,9]  R16       1
    x_kij[1,5,9]  R19       -1
    x_kij[1,5,9]  R23       -1
    x_kij[1,5,9]  R90       1200
    x_kij[1,6,5]  R16       -1
    x_kij[1,6,5]  R17       1
    x_kij[1,6,5]  R24       -1
    x_kij[1,6,5]  R32       1
    x_kij[1,6,5]  R91       1200
    x_kij[1,6,7]  R17       1
    x_kij[1,6,7]  R18       -1
    x_kij[1,6,7]  R24       -1
    x_kij[1,6,7]  R34       1
    x_kij[1,6,7]  R92       1200
    x_kij[1,6,9]  R3        1
    x_kij[1,6,9]  R17       1
    x_kij[1,6,9]  R19       -1
    x_kij[1,6,9]  R24       -1
    x_kij[1,6,9]  R93       1200
    x_kij[1,7,5]  R16       -1
    x_kij[1,7,5]  R18       1
    x_kij[1,7,5]  R25       -1
    x_kij[1,7,5]  R32       1
    x_kij[1,7,5]  R94       1200
    x_kij[1,7,6]  R17       -1
    x_kij[1,7,6]  R18       1
    x_kij[1,7,6]  R25       -1
    x_kij[1,7,6]  R33       1
    x_kij[1,7,6]  R95       1200
    x_kij[1,7,9]  R3        1
    x_kij[1,7,9]  R18       1
    x_kij[1,7,9]  R19       -1
    x_kij[1,7,9]  R25       -1
    x_kij[1,7,9]  R96       1200
    z_i[2]    OBJ       1
    z_i[2]    R26       -1
    z_i[3]    OBJ       1
    z_i[3]    R27       -1
    z_i[4]    OBJ       1
    z_i[4]    R28       -1
    MARKER    'MARKER'                 'INTEND'
    t_ki[0,0]  R41       1
    t_ki[0,0]  R42       1
    t_ki[0,0]  R43       1
    t_ki[0,0]  R44       1
    t_ki[0,0]  R109      1
    t_ki[0,0]  R116      1
    t_ki[0,0]  R137      1
    t_ki[0,0]  R144      1
    t_ki[0,0]  R171      -1
    t_ki[0,2]  R35       1
    t_ki[0,2]  R41       -1
    t_ki[0,2]  R45       1
    t_ki[0,2]  R46       1
    t_ki[0,2]  R47       1
    t_ki[0,2]  R48       1
    t_ki[0,2]  R49       1
    t_ki[0,2]  R50       -1
    t_ki[0,2]  R55       -1
    t_ki[0,2]  R110      1
    t_ki[0,2]  R117      1
    t_ki[0,2]  R138      1
    t_ki[0,2]  R145      1
    t_ki[0,2]  R165      -1
    t_ki[0,3]  R36       1
    t_ki[0,3]  R42       -1
    t_ki[0,3]  R45       -1
    t_ki[0,3]  R50       1
    t_ki[0,3]  R51       1
    t_ki[0,3]  R52       1
    t_ki[0,3]  R53       1
    t_ki[0,3]  R54       1
    t_ki[0,3]  R56       -1
    t_ki[0,3]  R111      1
    t_ki[0,3]  R118      1
    t_ki[0,3]  R139      1
    t_ki[0,3]  R146      1
    t_ki[0,3]  R166      -1
    t_ki[0,4]  R37       1
    t_ki[0,4]  R43       -1
    t_ki[0,4]  R46       -1
    t_ki[0,4]  R51       -1
    t_ki[0,4]  R55       1
    t_ki[0,4]  R56       1
    t_ki[0,4]  R57       1
    t_ki[0,4]  R58       1
    t_ki[0,4]  R59       1
    t_ki[0,4]  R112      1
    t_ki[0,4]  R119      1
    t_ki[0,4]  R140      1
    t_ki[0,4]  R147      1
    t_ki[0,4]  R167      -1
    t_ki[0,5]  R35       -1
    t_ki[0,5]  R47       -1
    t_ki[0,5]  R52       -1
    t_ki[0,5]  R57       -1
    t_ki[0,5]  R60       1
    t_ki[0,5]  R61       1
    t_ki[0,5]  R62       1
    t_ki[0,5]  R63       -1
    t_ki[0,5]  R66       -1
    t_ki[0,5]  R97       1
    t_ki[0,5]  R103      1
    t_ki[0,5]  R113      1
    t_ki[0,5]  R120      1
    t_ki[0,5]  R141      1
    t_ki[0,5]  R148      1
    t_ki[0,5]  R165      1
    t_ki[0,6]  R36       -1
    t_ki[0,6]  R48       -1
    t_ki[0,6]  R53       -1
    t_ki[0,6]  R58       -1
    t_ki[0,6]  R60       -1
    t_ki[0,6]  R63       1
    t_ki[0,6]  R64       1
    t_ki[0,6]  R65       1
    t_ki[0,6]  R67       -1
    t_ki[0,6]  R98       1
    t_ki[0,6]  R104      1
    t_ki[0,6]  R114      1
    t_ki[0,6]  R121      1
    t_ki[0,6]  R142      1
    t_ki[0,6]  R149      1
    t_ki[0,6]  R166      1
    t_ki[0,7]  R37       -1
    t_ki[0,7]  R49       -1
    t_ki[0,7]  R54       -1
    t_ki[0,7]  R59       -1
    t_ki[0,7]  R61       -1
    t_ki[0,7]  R64       -1
    t_ki[0,7]  R66       1
    t_ki[0,7]  R67       1
    t_ki[0,7]  R68       1
    t_ki[0,7]  R99       1
    t_ki[0,7]  R105      1
    t_ki[0,7]  R115      1
    t_ki[0,7]  R122      1
    t_ki[0,7]  R143      1
    t_ki[0,7]  R150      1
    t_ki[0,7]  R167      1
    t_ki[0,8]  R44       -1
    t_ki[0,8]  R62       -1
    t_ki[0,8]  R65       -1
    t_ki[0,8]  R68       -1
    t_ki[0,8]  R171      1
    t_ki[1,1]  R69       1
    t_ki[1,1]  R70       1
    t_ki[1,1]  R71       1
    t_ki[1,1]  R72       1
    t_ki[1,1]  R123      1
    t_ki[1,1]  R130      1
    t_ki[1,1]  R151      1
    t_ki[1,1]  R158      1
    t_ki[1,1]  R172      -1
    t_ki[1,2]  R38       1
    t_ki[1,2]  R69       -1
    t_ki[1,2]  R73       1
    t_ki[1,2]  R74       1
    t_ki[1,2]  R75       1
    t_ki[1,2]  R76       1
    t_ki[1,2]  R77       1
    t_ki[1,2]  R78       -1
    t_ki[1,2]  R83       -1
    t_ki[1,2]  R124      1
    t_ki[1,2]  R131      1
    t_ki[1,2]  R152      1
    t_ki[1,2]  R159      1
    t_ki[1,2]  R168      -1
    t_ki[1,3]  R39       1
    t_ki[1,3]  R70       -1
    t_ki[1,3]  R73       -1
    t_ki[1,3]  R78       1
    t_ki[1,3]  R79       1
    t_ki[1,3]  R80       1
    t_ki[1,3]  R81       1
    t_ki[1,3]  R82       1
    t_ki[1,3]  R84       -1
    t_ki[1,3]  R125      1
    t_ki[1,3]  R132      1
    t_ki[1,3]  R153      1
    t_ki[1,3]  R160      1
    t_ki[1,3]  R169      -1
    t_ki[1,4]  R40       1
    t_ki[1,4]  R71       -1
    t_ki[1,4]  R74       -1
    t_ki[1,4]  R79       -1
    t_ki[1,4]  R83       1
    t_ki[1,4]  R84       1
    t_ki[1,4]  R85       1
    t_ki[1,4]  R86       1
    t_ki[1,4]  R87       1
    t_ki[1,4]  R126      1
    t_ki[1,4]  R133      1
    t_ki[1,4]  R154      1
    t_ki[1,4]  R161      1
    t_ki[1,4]  R170      -1
    t_ki[1,5]  R38       -1
    t_ki[1,5]  R75       -1
    t_ki[1,5]  R80       -1
    t_ki[1,5]  R85       -1
    t_ki[1,5]  R88       1
    t_ki[1,5]  R89       1
    t_ki[1,5]  R90       1
    t_ki[1,5]  R91       -1
    t_ki[1,5]  R94       -1
    t_ki[1,5]  R100      1
    t_ki[1,5]  R106      1
    t_ki[1,5]  R127      1
    t_ki[1,5]  R134      1
    t_ki[1,5]  R155      1
    t_ki[1,5]  R162      1
    t_ki[1,5]  R168      1
    t_ki[1,6]  R39       -1
    t_ki[1,6]  R76       -1
    t_ki[1,6]  R81       -1
    t_ki[1,6]  R86       -1
    t_ki[1,6]  R88       -1
    t_ki[1,6]  R91       1
    t_ki[1,6]  R92       1
    t_ki[1,6]  R93       1
    t_ki[1,6]  R95       -1
    t_ki[1,6]  R101      1
    t_ki[1,6]  R107      1
    t_ki[1,6]  R128      1
    t_ki[1,6]  R135      1
    t_ki[1,6]  R156      1
    t_ki[1,6]  R163      1
    t_ki[1,6]  R169      1
    t_ki[1,7]  R40       -1
    t_ki[1,7]  R77       -1
    t_ki[1,7]  R82       -1
    t_ki[1,7]  R87       -1
    t_ki[1,7]  R89       -1
    t_ki[1,7]  R92       -1
    t_ki[1,7]  R94       1
    t_ki[1,7]  R95       1
    t_ki[1,7]  R96       1
    t_ki[1,7]  R102      1
    t_ki[1,7]  R108      1
    t_ki[1,7]  R129      1
    t_ki[1,7]  R136      1
    t_ki[1,7]  R157      1
    t_ki[1,7]  R164      1
    t_ki[1,7]  R170      1
    t_ki[1,9]  R72       -1
    t_ki[1,9]  R90       -1
    t_ki[1,9]  R93       -1
    t_ki[1,9]  R96       -1
    t_ki[1,9]  R172      1
RHS
    RHS1      R0        1
    RHS1      R1        1
    RHS1      R2        1
    RHS1      R3        1
    RHS1      R29       1
    RHS1      R30       1
    RHS1      R31       1
    RHS1      R32       1
    RHS1      R33       1
    RHS1      R34       1
    RHS1      R35       -1.8110770276274835e+01
    RHS1      R36       -1.6492422502470642e+01
    RHS1      R37       -20.8806130178211
    RHS1      R38       -1.8110770276274835e+01
    RHS1      R39       -1.6492422502470642e+01
    RHS1      R40       -20.8806130178211
    RHS1      R41       1.1927888974490720e+03
    RHS1      R42       1.1910557280900009e+03
    RHS1      R43       1.1873508893593264e+03
    RHS1      R44       1.1654746469967358e+03
    RHS1      R45       1.1892296703857310e+03
    RHS1      R46       1.1917537887487647e+03
    RHS1      R47       1.1818892297237251e+03
    RHS1      R48       1.1791193869821789e+03
    RHS1      R49       1.1708795604428778e+03
    RHS1      R50       1.1892296703857310e+03
    RHS1      R51       1.1910557280900009e+03
    RHS1      R52       1.1815609110854143e+03
    RHS1      R53       1.1835075774975294e+03
    RHS1      R54       1.1759168108424153e+03
    RHS1      R55       1.1917537887487647e+03
    RHS1      R56       1.1910557280900009e+03
    RHS1      R57       1.1892296703857310e+03
    RHS1      R58       1.1873508893593264e+03
    RHS1      R59       1.1791193869821789e+03
    RHS1      R60       1.1917537887487647e+03
    RHS1      R61       1.1858578643762689e+03
    RHS1      R62       1.1878344749394037e+03
    RHS1      R63       1.1917537887487647e+03
    RHS1      R64       1.1917537887487647e+03
    RHS1      R65       1.1883380962103095e+03
    RHS1      R66       1.1858578643762689e+03
    RHS1      R67       1.1917537887487647e+03
    RHS1      R68       1.1917537887487647e+03
    RHS1      R69       1.1854397802214389e+03
    RHS1      R70       1.1910557280900009e+03
    RHS1      R71       1.1830294372515229e+03
    RHS1      R72       1.1587689437438235e+03
    RHS1      R73       1.1892296703857310e+03
    RHS1      R74       1.1917537887487647e+03
    RHS1      R75       1.1818892297237251e+03
    RHS1      R76       1.1791193869821789e+03
    RHS1      R77       1.1708795604428778e+03
    RHS1      R78       1.1892296703857310e+03
    RHS1      R79       1.1910557280900009e+03
    RHS1      R80       1.1815609110854143e+03
    RHS1      R81       1.1835075774975294e+03
    RHS1      R82       1.1759168108424153e+03
    RHS1      R83       1.1917537887487647e+03
    RHS1      R84       1.1910557280900009e+03
    RHS1      R85       1.1892296703857310e+03
    RHS1      R86       1.1873508893593264e+03
    RHS1      R87       1.1791193869821789e+03
    RHS1      R88       1.1917537887487647e+03
    RHS1      R89       1.1858578643762689e+03
    RHS1      R90       1.1810263340389897e+03
    RHS1      R91       1.1917537887487647e+03
    RHS1      R92       1.1917537887487647e+03
    RHS1      R93       1.1838754845034030e+03
    RHS1      R94       1.1858578643762689e+03
    RHS1      R95       1.1917537887487647e+03
    RHS1      R96       1.1910557280900009e+03
    RHS1      R97       1100
    RHS1      R98       1100
    RHS1      R99       1100
    RHS1      R100      1100
    RHS1      R101      1100
    RHS1      R102      1100
    RHS1      R103      1150
    RHS1      R104      1120
    RHS1      R105      1125
    RHS1      R106      1150
    RHS1      R107      1120
    RHS1      R108      1125
    RHS1      R109      1000
    RHS1      R110      1000
    RHS1      R111      1000
    RHS1      R112      1000
    RHS1      R113      1000
    RHS1      R114      1000
    RHS1      R115      1000
    RHS1      R116      1000
    RHS1      R117      1000
    RHS1      R118      1000
    RHS1      R119      1000
    RHS1      R120      1000
    RHS1      R121      1000
    RHS1      R122      1000
    RHS1      R123      1000
    RHS1      R124      1000
    RHS1      R125      1000
    RHS1      R126      1000
    RHS1      R127      1000
    RHS1      R128      1000
    RHS1      R129      1000
    RHS1      R130      1000
    RHS1      R131      1000
    RHS1      R132      1000
    RHS1      R133      1000
    RHS1      R134      1000
    RHS1      R135      1000
    RHS1      R136      1000
    RHS1      R137      1200
    RHS1      R138      1200
    RHS1      R139      1200
    RHS1      R140      1200
    RHS1      R141      1200
    RHS1      R142      1200
    RHS1      R143      1200
    RHS1      R144      1200
    RHS1      R145      1200
    RHS1      R146      1200
    RHS1      R147      1200
    RHS1      R148      1200
    RHS1      R149      1200
    RHS1      R150      1200
    RHS1      R151      1200
    RHS1      R152      1200
    RHS1      R153      1200
    RHS1      R154      1200
    RHS1      R155      1200
    RHS1      R156      1200
    RHS1      R157      1200
    RHS1      R158      1200
    RHS1      R159      1200
    RHS1      R160      1200
    RHS1      R161      1200
    RHS1      R162      1200
    RHS1      R163      1200
    RHS1      R164      1200
    RHS1      R165      150
    RHS1      R166      150
    RHS1      R167      150
    RHS1      R168      150
    RHS1      R169      150
    RHS1      R170      150
    RHS1      R171      150
    RHS1      R172      150
    RHS1      R173      4
    RHS1      R174      4
BOUNDS
 BV BND1      x_kij[0,0,2]
 BV BND1      x_kij[0,0,3]
 BV BND1      x_kij[0,0,4]
 BV BND1      x_kij[0,0,8]
 BV BND1      x_kij[0,2,3]
 BV BND1      x_kij[0,2,4]
 BV BND1      x_kij[0,2,5]
 BV BND1      x_kij[0,2,6]
 BV BND1      x_kij[0,2,7]
 BV BND1      x_kij[0,3,2]
 BV BND1      x_kij[0,3,4]
 BV BND1      x_kij[0,3,5]
 BV BND1      x_kij[0,3,6]
 BV BND1      x_kij[0,3,7]
 BV BND1      x_kij[0,4,2]
 BV BND1      x_kij[0,4,3]
 BV BND1      x_kij[0,4,5]
 BV BND1      x_kij[0,4,6]
 BV BND1      x_kij[0,4,7]
 BV BND1      x_kij[0,5,6]
 BV BND1      x_kij[0,5,7]
 BV BND1      x_kij[0,5,8]
 BV BND1      x_kij[0,6,5]
 BV BND1      x_kij[0,6,7]
 BV BND1      x_kij[0,6,8]
 BV BND1      x_kij[0,7,5]
 BV BND1      x_kij[0,7,6]
 BV BND1      x_kij[0,7,8]
 BV BND1      x_kij[1,1,2]
 BV BND1      x_kij[1,1,3]
 BV BND1      x_kij[1,1,4]
 BV BND1      x_kij[1,1,9]
 BV BND1      x_kij[1,2,3]
 BV BND1      x_kij[1,2,4]
 BV BND1      x_kij[1,2,5]
 BV BND1      x_kij[1,2,6]
 BV BND1      x_kij[1,2,7]
 BV BND1      x_kij[1,3,2]
 BV BND1      x_kij[1,3,4]
 BV BND1      x_kij[1,3,5]
 BV BND1      x_kij[1,3,6]
 BV BND1      x_kij[1,3,7]
 BV BND1      x_kij[1,4,2]
 BV BND1      x_kij[1,4,3]
 BV BND1      x_kij[1,4,5]
 BV BND1      x_kij[1,4,6]
 BV BND1      x_kij[1,4,7]
 BV BND1      x_kij[1,5,6]
 BV BND1      x_kij[1,5,7]
 BV BND1      x_kij[1,5,9]
 BV BND1      x_kij[1,6,5]
 BV BND1      x_kij[1,6,7]
 BV BND1      x_kij[1,6,9]
 BV BND1      x_kij[1,7,5]
 BV BND1      x_kij[1,7,6]
 BV BND1      x_kij[1,7,9]
 BV BND1      z_i[2]  
 BV BND1      z_i[3]  
 BV BND1      z_i[4]  
QCMATRIX   qc0     
    x_kij[0,2,5]  t_ki[0,2]  -0.5
    t_ki[0,2]  x_kij[0,2,5]  -0.5
QCMATRIX   qc1     
    x_kij[0,2,6]  t_ki[0,2]  -0.5
    t_ki[0,2]  x_kij[0,2,6]  -0.5
QCMATRIX   qc2     
    x_kij[0,2,7]  t_ki[0,2]  -0.5
    t_ki[0,2]  x_kij[0,2,7]  -0.5
QCMATRIX   qc3     
    x_kij[0,3,5]  t_ki[0,3]  -0.5
    t_ki[0,3]  x_kij[0,3,5]  -0.5
QCMATRIX   qc4     
    x_kij[0,3,6]  t_ki[0,3]  -0.5
    t_ki[0,3]  x_kij[0,3,6]  -0.5
QCMATRIX   qc5     
    x_kij[0,3,7]  t_ki[0,3]  -0.5
    t_ki[0,3]  x_kij[0,3,7]  -0.5
QCMATRIX   qc6     
    x_kij[0,4,5]  t_ki[0,4]  -0.5
    t_ki[0,4]  x_kij[0,4,5]  -0.5
QCMATRIX   qc7     
    x_kij[0,4,6]  t_ki[0,4]  -0.5
    t_ki[0,4]  x_kij[0,4,6]  -0.5
QCMATRIX   qc8     
    x_kij[0,4,7]  t_ki[0,4]  -0.5
    t_ki[0,4]  x_kij[0,4,7]  -0.5
QCMATRIX   qc9     
    x_kij[1,2,5]  t_ki[1,2]  -0.5
    t_ki[1,2]  x_kij[1,2,5]  -0.5
QCMATRIX   qc10    
    x_kij[1,2,6]  t_ki[1,2]  -0.5
    t_ki[1,2]  x_kij[1,2,6]  -0.5
QCMATRIX   qc11    
    x_kij[1,2,7]  t_ki[1,2]  -0.5
    t_ki[1,2]  x_kij[1,2,7]  -0.5
QCMATRIX   qc12    
    x_kij[1,3,5]  t_ki[1,3]  -0.5
    t_ki[1,3]  x_kij[1,3,5]  -0.5
QCMATRIX   qc13    
    x_kij[1,3,6]  t_ki[1,3]  -0.5
    t_ki[1,3]  x_kij[1,3,6]  -0.5
QCMATRIX   qc14    
    x_kij[1,3,7]  t_ki[1,3]  -0.5
    t_ki[1,3]  x_kij[1,3,7]  -0.5
QCMATRIX   qc15    
    x_kij[1,4,5]  t_ki[1,4]  -0.5
    t_ki[1,4]  x_kij[1,4,5]  -0.5
QCMATRIX   qc16    
    x_kij[1,4,6]  t_ki[1,4]  -0.5
    t_ki[1,4]  x_kij[1,4,6]  -0.5
QCMATRIX   qc17    
    x_kij[1,4,7]  t_ki[1,4]  -0.5
    t_ki[1,4]  x_kij[1,4,7]  -0.5
QCMATRIX   qc18    
    x_kij[0,2,5]  t_ki[0,2]  -0.5
    t_ki[0,2]  x_kij[0,2,5]  -0.5
QCMATRIX   qc19    
    x_kij[0,2,6]  t_ki[0,2]  -0.5
    t_ki[0,2]  x_kij[0,2,6]  -0.5
QCMATRIX   qc20    
    x_kij[0,2,7]  t_ki[0,2]  -0.5
    t_ki[0,2]  x_kij[0,2,7]  -0.5
QCMATRIX   qc21    
    x_kij[0,3,5]  t_ki[0,3]  -0.5
    t_ki[0,3]  x_kij[0,3,5]  -0.5
QCMATRIX   qc22    
    x_kij[0,3,6]  t_ki[0,3]  -0.5
    t_ki[0,3]  x_kij[0,3,6]  -0.5
QCMATRIX   qc23    
    x_kij[0,3,7]  t_ki[0,3]  -0.5
    t_ki[0,3]  x_kij[0,3,7]  -0.5
QCMATRIX   qc24    
    x_kij[0,4,5]  t_ki[0,4]  -0.5
    t_ki[0,4]  x_kij[0,4,5]  -0.5
QCMATRIX   qc25    
    x_kij[0,4,6]  t_ki[0,4]  -0.5
    t_ki[0,4]  x_kij[0,4,6]  -0.5
QCMATRIX   qc26    
    x_kij[0,4,7]  t_ki[0,4]  -0.5
    t_ki[0,4]  x_kij[0,4,7]  -0.5
QCMATRIX   qc27    
    x_kij[1,2,5]  t_ki[1,2]  -0.5
    t_ki[1,2]  x_kij[1,2,5]  -0.5
QCMATRIX   qc28    
    x_kij[1,2,6]  t_ki[1,2]  -0.5
    t_ki[1,2]  x_kij[1,2,6]  -0.5
QCMATRIX   qc29    
    x_kij[1,2,7]  t_ki[1,2]  -0.5
    t_ki[1,2]  x_kij[1,2,7]  -0.5
QCMATRIX   qc30    
    x_kij[1,3,5]  t_ki[1,3]  -0.5
    t_ki[1,3]  x_kij[1,3,5]  -0.5
QCMATRIX   qc31    
    x_kij[1,3,6]  t_ki[1,3]  -0.5
    t_ki[1,3]  x_kij[1,3,6]  -0.5
QCMATRIX   qc32    
    x_kij[1,3,7]  t_ki[1,3]  -0.5
    t_ki[1,3]  x_kij[1,3,7]  -0.5
QCMATRIX   qc33    
    x_kij[1,4,5]  t_ki[1,4]  -0.5
    t_ki[1,4]  x_kij[1,4,5]  -0.5
QCMATRIX   qc34    
    x_kij[1,4,6]  t_ki[1,4]  -0.5
    t_ki[1,4]  x_kij[1,4,6]  -0.5
QCMATRIX   qc35    
    x_kij[1,4,7]  t_ki[1,4]  -0.5
    t_ki[1,4]  x_kij[1,4,7]  -0.5
ENDATA
